(set-info :smt-lib-version 2.6)
(set-logic QF_S)
(set-info :source |
Generated by: Murphy Berzish, Mitja Kulczynski, Federico Mora, Florin Manea, Joel Day, Dirk Nowotka, Vijay Ganesh, Zhengyang Lu
Generated on: 2020-10-01
Description: Translated from a collection of real-world regex queries, AutomataArk, collected by Loris D’Antoni and Fang Wang: https://github.com/lorisdanto/automatark
Application: Evaluate solvers on real-world regex queries
Target solver: Z3str3RE, CVC4, OSTRICH, Z3seq, Z3str3, Z3-Trau
Publications: Berzish, M., Kulczynski, M., Mora, F., Manea, F., Day, J. D., Nowotka, D., & Ganesh, V. (2021, July). An SMT solver for regular expressions and linear arithmetic over string length. In CAV 2021.
|)
(set-info :license "https://creativecommons.org/licenses/by/4.0/")
(set-info :category "industrial")
(set-info :status unknown)

(declare-const X String)
(assert (not (str.in_re X (re.union (re.++ ((_ re.loop 6 6) (re.range "0" "9")) (re.opt (re.union (str.to_re "-") (str.to_re " ") (str.to_re "\u{9}") (str.to_re "\u{a}") (str.to_re "\u{c}") (str.to_re "\u{d}"))) ((_ re.loop 12 12) (re.range "0" "9"))) (re.++ (str.to_re "\u{a}") ((_ re.loop 4 4) (re.range "0" "9")) (re.opt (re.union (str.to_re "-") (str.to_re " ") (str.to_re "\u{9}") (str.to_re "\u{a}") (str.to_re "\u{c}") (str.to_re "\u{d}"))) ((_ re.loop 4 4) (re.range "0" "9")) (re.opt (re.union (str.to_re "-") (str.to_re " ") (str.to_re "\u{9}") (str.to_re "\u{a}") (str.to_re "\u{c}") (str.to_re "\u{d}"))) ((_ re.loop 4 4) (re.range "0" "9")) (re.opt (re.union (str.to_re "-") (str.to_re " ") (str.to_re "\u{9}") (str.to_re "\u{a}") (str.to_re "\u{c}") (str.to_re "\u{d}"))) ((_ re.loop 4 4) (re.range "0" "9")))))))
(assert (not (str.in_re X (re.++ (str.to_re "Host:") (re.+ (re.range "0" "9")) (str.to_re "/communicatortb") (re.union (str.to_re " ") (str.to_re "\u{9}") (str.to_re "\u{a}") (str.to_re "\u{c}") (str.to_re "\u{d}")) (str.to_re "www.fast-finder.comBrowser/GR\u{a}")))))
(assert (str.in_re X (re.++ (str.to_re "frame_ver2") (re.+ (re.union (str.to_re " ") (str.to_re "\u{9}") (str.to_re "\u{a}") (str.to_re "\u{c}") (str.to_re "\u{d}"))) (str.to_re "www.urlblaze.net") (re.+ (re.union (str.to_re " ") (str.to_re "\u{9}") (str.to_re "\u{a}") (str.to_re "\u{c}") (str.to_re "\u{d}"))) (str.to_re "source=IncrediFind") (re.+ (re.union (str.to_re " ") (str.to_re "\u{9}") (str.to_re "\u{a}") (str.to_re "\u{c}") (str.to_re "\u{d}"))) (str.to_re "AgentHost:Host:Host:/GRSpynova3AFrom:\u{a}"))))
(assert (str.in_re X (re.++ (str.to_re "search.dropspam.com") (re.* re.allchar) (str.to_re "SupportFiles\u{13}") (re.* re.allchar) (str.to_re "Referer:\u{a}"))))
(assert (str.in_re X (re.++ (str.to_re "/") (re.union (re.range "a" "z") (re.range "0" "9")) (re.* (re.++ (re.opt (re.union (re.+ (str.to_re "_")) (str.to_re "-") (str.to_re "."))) (re.+ (re.union (re.range "a" "z") (re.range "0" "9"))))) (str.to_re "@") (re.union (re.range "a" "z") (re.range "0" "9")) (re.* (re.opt (re.++ (re.opt (re.+ (str.to_re "-"))) (re.+ (re.union (re.range "a" "z") (re.range "0" "9")))))) (str.to_re "/i\u{a}") (re.opt (re.++ re.allchar ((_ re.loop 2 3) (re.range "a" "z")))) re.allchar ((_ re.loop 2 6) (re.range "a" "z")))))
(check-sat)

(exit)
